p cnf 50 174
3 -1 0
3 2 0
1 -2 -3 0
5 -4 0
5 4 0
-3 5 -6 0
3 -5 -6 0
-3 -5 6 0
3 5 6 0
10 -8 0
10 -9 0
8 9 -10 0
11 7 0
11 10 0
-7 -10 -11 0
-12 11 0
-12 -9 0
-11 9 12 0
3 -12 -13 0
-3 12 -13 0
3 12 13 0
-3 -12 13 0
-14 -6 0
-14 13 0
6 -13 14 0
-15 2 -16 0
15 -2 -16 0
-15 -2 16 0
15 2 16 0
-7 -16 -17 0
7 16 -17 0
-7 16 17 0
7 -16 17 0
7 -18 0
-7 -18 0
-19 18 0
-19 9 0
-18 -9 19 0
-21 -19 0
-21 20 0
19 -20 21 0
22 -21 0
22 21 0
9 -4 -23 0
-9 4 -23 0
9 4 23 0
-9 -4 23 0
-24 -11 -25 0
24 11 -25 0
-24 11 25 0
24 -11 25 0
-26 -2 0
-26 4 0
2 -4 26 0
27 24 0
27 -12 0
-24 12 -27 0
-28 -26 0
-28 27 0
26 -27 28 0
-28 4 -29 0
28 -4 -29 0
-28 -4 29 0
28 4 29 0
-30 25 0
-30 -29 0
-25 29 30 0
31 -23 0
31 -30 0
23 30 -31 0
32 22 0
32 31 0
-22 -31 -32 0
33 17 0
33 -32 0
-17 32 -33 0
-14 -33 -34 0
14 33 -34 0
-14 33 34 0
14 -33 34 0
12 24 -35 0
-12 -24 -35 0
12 -24 35 0
-12 24 35 0
-36 26 0
-36 19 0
-26 -19 36 0
3 -18 -37 0
-3 18 -37 0
3 18 37 0
-3 -18 37 0
36 37 -38 0
-36 -37 -38 0
36 -37 38 0
-36 37 38 0
-39 -35 0
-39 -38 0
35 38 39 0
-5 37 -40 0
5 -37 -40 0
-5 -37 40 0
5 37 40 0
41 9 0
41 2 0
-9 -2 -41 0
42 40 0
42 -41 0
-40 41 -42 0
-43 13 0
-43 -37 0
-13 37 43 0
-43 37 -44 0
43 -37 -44 0
-43 -37 44 0
43 37 44 0
-26 -45 -46 0
26 45 -46 0
-26 45 46 0
26 -45 46 0
-47 -44 0
-47 -46 0
44 46 47 0
42 -47 -48 0
-42 47 -48 0
42 47 48 0
-42 -47 48 0
49 -39 0
49 -48 0
39 48 -49 0
-34 49 -50 0
34 -49 -50 0
-34 -49 50 0
34 49 50 0
1 -7 -36 43 0
-42 14 -40 23 0
48 7 0
-49 -22 -10 17 0
-9 13 -41 0
33 -43 31 -27 0
21 31 -26 -9 0
3 34 0
-28 18 -39 0
12 -8 -49 -15 -10 -18 0
38 -32 -26 -42 0
-1 34 0
23 35 -7 -45 50 0
5 -44 -26 0
-27 -6 0
36 10 -35 46 0
-4 -10 2 -45 31 0
12 27 47 -43 -11 -46 0
45 49 0
47 45 -26 0
-48 -14 30 17 0
-49 -9 -24 -45 21 0
42 20 0
24 14 50 0
-32 17 46 3 0
44 -49 0
-16 24 26 7 0
3 -28 -26 0
-31 -9 36 -20 50 0
-27 -26 -43 -29 46 -11 0
-24 18 -28 38 35 0
-34 -20 -11 -9 0
-34 30 -29 46 42 0
-23 35 20 0
-35 -12 -48 15 44 0
49 18 29 10 0
-23 -11 -18 -7 0
-14 -2 13 -34 0
-13 9 4 0
-1 -20 44 -29 -11 0
50 0
